p cnf 256 978
c p weight -11 1 0
c p weight 11 -1 0
c p weight 15 6.12323399573676603586882014729198302312846062338790031898128063403419218957424163818359375E-17 0
c p weight -15 1 0
c p weight 16 1 0
c p weight -16 1 0
c p weight -13 1 0
c p weight 13 -1 0
c p weight -17 1 0
c p weight 17 -1 0
c p weight -19 1 0
c p weight 19 -1 0
c p weight 23 6.12323399573676603586882014729198302312846062338790031898128063403419218957424163818359375E-17 0
c p weight -23 1 0
c p weight 24 1 0
c p weight -24 1 0
c p weight -21 1 0
c p weight 21 -1 0
c p weight -25 1 0
c p weight 25 -1 0
c p weight -27 1 0
c p weight 27 -1 0
c p weight 31 6.12323399573676603586882014729198302312846062338790031898128063403419218957424163818359375E-17 0
c p weight -31 1 0
c p weight 32 1 0
c p weight -32 1 0
c p weight -29 1 0
c p weight 29 -1 0
c p weight -33 1 0
c p weight 33 -1 0
c p weight -35 1 0
c p weight 35 -1 0
c p weight 39 6.12323399573676603586882014729198302312846062338790031898128063403419218957424163818359375E-17 0
c p weight -39 1 0
c p weight 40 1 0
c p weight -40 1 0
c p weight -37 1 0
c p weight 37 -1 0
c p weight -41 1 0
c p weight 41 -1 0
c p weight -43 1 0
c p weight 43 -1 0
c p weight 46 0.1950903220161283313505151681965799070894718170166015625 0
c p weight -46 1 0
c p weight 47 -0.9807852804032304305792422383092343807220458984375 0
c p weight -47 1 0
c p weight -44 1 0
c p weight 44 -1 0
c p weight -48 1 0
c p weight 48 -1 0
c p weight 53 0.1950903220161283313505151681965799070894718170166015625 0
c p weight -53 1 0
c p weight 54 0.9807852804032304305792422383092343807220458984375 0
c p weight -54 1 0
c p weight -51 1 0
c p weight 51 -1 0
c p weight -55 1 0
c p weight 55 -1 0
c p weight 60 0.1950903220161283313505151681965799070894718170166015625 0
c p weight -60 1 0
c p weight 61 -0.9807852804032304305792422383092343807220458984375 0
c p weight -61 1 0
c p weight -58 1 0
c p weight 58 -1 0
c p weight 64 0.9238795325112867384831361050601117312908172607421875 0
c p weight -64 1 0
c p weight 65 0.382683432365089781779232680491986684501171112060546875 0
c p weight -65 1 0
c p weight -62 1 0
c p weight 62 -1 0
c p weight -66 1 0
c p weight 66 -1 0
c p weight 71 0.9238795325112867384831361050601117312908172607421875 0
c p weight -71 1 0
c p weight 72 -0.382683432365089781779232680491986684501171112060546875 0
c p weight -72 1 0
c p weight -69 1 0
c p weight 69 -1 0
c p weight -73 1 0
c p weight 73 -1 0
c p weight 78 0.9238795325112867384831361050601117312908172607421875 0
c p weight -78 1 0
c p weight 79 0.382683432365089781779232680491986684501171112060546875 0
c p weight -79 1 0
c p weight -76 1 0
c p weight 76 -1 0
c p weight 82 0.70710678118654752440084436210485 0
c p weight -82 1 0
c p weight -80 1 0
c p weight 80 -1 0
c p weight -83 1 0
c p weight 83 -1 0
c p weight 88 0.70710678118654752440084436210485 0
c p weight -88 1 0
c p weight -86 1 0
c p weight 86 -1 0
c p weight -89 1 0
c p weight 89 -1 0
c p weight 94 0.70710678118654752440084436210485 0
c p weight -94 1 0
c p weight -92 1 0
c p weight 92 -1 0
c p weight -95 1 0
c p weight 95 -1 0
c p weight -98 1 0
c p weight 98 -1 0
c p weight -101 1 0
c p weight 101 -1 0
c p weight 106 0.70710678118654752440084436210485 0
c p weight -106 1 0
c p weight -104 1 0
c p weight 104 -1 0
c p weight 109 0.9238795325112867384831361050601117312908172607421875 0
c p weight -109 1 0
c p weight 110 -0.382683432365089781779232680491986684501171112060546875 0
c p weight -110 1 0
c p weight -107 1 0
c p weight 107 -1 0
c p weight -111 1 0
c p weight 111 -1 0
c p weight -113 1 0
c p weight 113 -1 0
c p weight -116 1 0
c p weight 116 -1 0
c p weight -118 1 0
c p weight 118 -1 0
c p weight -121 1 0
c p weight 121 -1 0
c p weight -123 1 0
c p weight 123 -1 0
c p weight -126 1 0
c p weight 126 -1 0
c p weight -129 1 0
c p weight 129 -1 0
c p weight -132 1 0
c p weight 132 -1 0
c p weight 136 6.12323399573676603586882014729198302312846062338790031898128063403419218957424163818359375E-17 0
c p weight -136 1 0
c p weight 137 1 0
c p weight -137 1 0
c p weight -134 1 0
c p weight 134 -1 0
c p weight -138 1 0
c p weight 138 -1 0
c p weight -140 1 0
c p weight 140 -1 0
c p weight 145 0.70710678118654752440084436210485 0
c p weight -145 1 0
c p weight -143 1 0
c p weight 143 -1 0
c p weight -146 1 0
c p weight 146 -1 0
c p weight 151 0.70710678118654752440084436210485 0
c p weight -151 1 0
c p weight -149 1 0
c p weight 149 -1 0
c p weight -152 1 0
c p weight 152 -1 0
c p weight 156 6.12323399573676603586882014729198302312846062338790031898128063403419218957424163818359375E-17 0
c p weight -156 1 0
c p weight 157 1 0
c p weight -157 1 0
c p weight -154 1 0
c p weight 154 -1 0
c p weight -158 1 0
c p weight 158 -1 0
c p weight -160 1 0
c p weight 160 -1 0
c p weight 165 0.9238795325112867384831361050601117312908172607421875 0
c p weight -165 1 0
c p weight 166 0.382683432365089781779232680491986684501171112060546875 0
c p weight -166 1 0
c p weight -163 1 0
c p weight 163 -1 0
c p weight -167 1 0
c p weight 167 -1 0
c p weight 172 0.9238795325112867384831361050601117312908172607421875 0
c p weight -172 1 0
c p weight 173 -0.382683432365089781779232680491986684501171112060546875 0
c p weight -173 1 0
c p weight -170 1 0
c p weight 170 -1 0
c p weight 176 0.70710678118654752440084436210485 0
c p weight -176 1 0
c p weight -174 1 0
c p weight 174 -1 0
c p weight -177 1 0
c p weight 177 -1 0
c p weight 182 0.70710678118654752440084436210485 0
c p weight -182 1 0
c p weight -180 1 0
c p weight 180 -1 0
c p weight -183 1 0
c p weight 183 -1 0
c p weight 188 0.70710678118654752440084436210485 0
c p weight -188 1 0
c p weight -186 1 0
c p weight 186 -1 0
c p weight -189 1 0
c p weight 189 -1 0
c p weight 193 6.12323399573676603586882014729198302312846062338790031898128063403419218957424163818359375E-17 0
c p weight -193 1 0
c p weight 194 1 0
c p weight -194 1 0
c p weight -191 1 0
c p weight 191 -1 0
c p weight -195 1 0
c p weight 195 -1 0
c p weight 199 0.9807852804032304305792422383092343807220458984375 0
c p weight -199 1 0
c p weight 200 -0.195090322016128248083788321309839375317096710205078125 0
c p weight -200 1 0
c p weight -197 1 0
c p weight 197 -1 0
c p weight -201 1 0
c p weight 201 -1 0
c p weight 206 0.9807852804032304305792422383092343807220458984375 0
c p weight -206 1 0
c p weight 207 0.195090322016128248083788321309839375317096710205078125 0
c p weight -207 1 0
c p weight -204 1 0
c p weight 204 -1 0
c p weight -208 1 0
c p weight 208 -1 0
c p weight 213 0.9807852804032304305792422383092343807220458984375 0
c p weight -213 1 0
c p weight 214 -0.195090322016128248083788321309839375317096710205078125 0
c p weight -214 1 0
c p weight -211 1 0
c p weight 211 -1 0
c p weight 217 0.9238795325112867384831361050601117312908172607421875 0
c p weight -217 1 0
c p weight 218 -0.382683432365089781779232680491986684501171112060546875 0
c p weight -218 1 0
c p weight -215 1 0
c p weight 215 -1 0
c p weight -219 1 0
c p weight 219 -1 0
c p weight 224 0.9238795325112867384831361050601117312908172607421875 0
c p weight -224 1 0
c p weight 225 0.382683432365089781779232680491986684501171112060546875 0
c p weight -225 1 0
c p weight -222 1 0
c p weight 222 -1 0
c p weight -226 1 0
c p weight 226 -1 0
c p weight 231 0.9238795325112867384831361050601117312908172607421875 0
c p weight -231 1 0
c p weight 232 -0.382683432365089781779232680491986684501171112060546875 0
c p weight -232 1 0
c p weight -229 1 0
c p weight 229 -1 0
c p weight 235 0.70710678118654752440084436210485 0
c p weight -235 1 0
c p weight -233 1 0
c p weight 233 -1 0
c p weight -236 1 0
c p weight 236 -1 0
c p weight 241 0.70710678118654752440084436210485 0
c p weight -241 1 0
c p weight -239 1 0
c p weight 239 -1 0
c p weight -242 1 0
c p weight 242 -1 0
c p weight 247 0.70710678118654752440084436210485 0
c p weight -247 1 0
c p weight -245 1 0
c p weight 245 -1 0
c p weight -248 1 0
c p weight 248 -1 0
c p weight 252 6.12323399573676603586882014729198302312846062338790031898128063403419218957424163818359375E-17 0
c p weight -252 1 0
c p weight 253 1 0
c p weight -253 1 0
c p weight -250 1 0
c p weight 250 -1 0
c p weight -254 1 0
c p weight 254 -1 0
c p weight 256 0.5 0
c p weight -256 1 0
256 0
-9 0
-7 0
-5 0
-3 0
-1 0
-11 1 0
-11 2 0
11 -1 -2 0
12 1 -2 0
12 -1 2 0
-12 1 2 0
-12 -1 -2 0
-13 14 0
-13 12 0
-13 -1 0
13 -14 1 -12 0
14 -1 12 0
-14 1 12 0
-15 12 0
14 -15 -1 0
-14 -15 1 0
14 15 1 -12 0
-14 15 -1 -12 0
-16 12 0
14 -16 1 0
-14 -16 -1 0
14 16 -1 -12 0
-14 16 1 -12 0
-17 14 0
-17 12 0
17 -14 -12 0
18 14 -12 0
18 -14 12 0
-18 14 12 0
-18 -14 -12 0
-19 3 0
-19 4 0
19 -3 -4 0
20 3 -4 0
20 -3 4 0
-20 3 4 0
-20 -3 -4 0
-21 22 0
-21 20 0
-21 -3 0
21 -22 3 -20 0
22 -3 20 0
-22 3 20 0
-23 20 0
22 -23 -3 0
-22 -23 3 0
22 23 3 -20 0
-22 23 -3 -20 0
-24 20 0
22 -24 3 0
-22 -24 -3 0
22 24 -3 -20 0
-22 24 3 -20 0
-25 22 0
-25 20 0
25 -22 -20 0
26 22 -20 0
26 -22 20 0
-26 22 20 0
-26 -22 -20 0
-27 5 0
-27 6 0
27 -5 -6 0
28 5 -6 0
28 -5 6 0
-28 5 6 0
-28 -5 -6 0
-29 30 0
-29 28 0
-29 -5 0
29 -30 5 -28 0
30 -5 28 0
-30 5 28 0
-31 28 0
30 -31 -5 0
-30 -31 5 0
30 31 5 -28 0
-30 31 -5 -28 0
-32 28 0
30 -32 5 0
-30 -32 -5 0
30 32 -5 -28 0
-30 32 5 -28 0
-33 30 0
-33 28 0
33 -30 -28 0
34 30 -28 0
34 -30 28 0
-34 30 28 0
-34 -30 -28 0
-35 7 0
-35 8 0
35 -7 -8 0
36 7 -8 0
36 -7 8 0
-36 7 8 0
-36 -7 -8 0
-37 38 0
-37 36 0
-37 -7 0
37 -38 7 -36 0
38 -7 36 0
-38 7 36 0
-39 36 0
38 -39 -7 0
-38 -39 7 0
38 39 7 -36 0
-38 39 -7 -36 0
-40 36 0
38 -40 7 0
-38 -40 -7 0
38 40 -7 -36 0
-38 40 7 -36 0
-41 38 0
-41 36 0
41 -38 -36 0
42 38 -36 0
42 -38 36 0
-42 38 36 0
-42 -38 -36 0
43 -10 0
-43 10 0
-44 9 0
-44 10 0
-44 -45 0
44 45 -9 -10 0
45 9 -10 0
-45 9 10 0
-46 9 0
45 -46 -10 0
-45 -46 10 0
45 46 -9 10 0
-45 46 -9 -10 0
-47 9 0
45 -47 10 0
-45 -47 -10 0
45 47 -9 -10 0
-45 47 -9 10 0
-48 9 0
-48 18 0
-48 14 -45 0
-48 -14 45 0
48 -9 14 45 -18 0
48 -9 -14 -45 -18 0
50 9 -14 0
50 -9 14 0
-50 9 14 0
-50 -9 -14 0
49 45 -18 0
49 -45 18 0
-49 45 18 0
-49 -45 -18 0
-51 50 0
-51 18 0
-51 -52 0
51 52 -50 -18 0
52 50 -18 0
-52 50 18 0
-53 50 0
52 -53 -18 0
-52 -53 18 0
52 53 -50 18 0
-52 53 -50 -18 0
-54 50 0
52 -54 18 0
-52 -54 -18 0
52 54 -50 -18 0
-52 54 -50 18 0
-55 9 0
-55 52 0
-55 50 -49 0
-55 -50 49 0
55 -9 50 49 -52 0
55 -9 -50 -49 -52 0
57 9 -50 0
57 -9 50 0
-57 9 50 0
-57 -9 -50 0
56 49 -52 0
56 -49 52 0
-56 49 52 0
-56 -49 -52 0
-58 57 0
-58 52 0
-58 -59 0
58 59 -57 -52 0
59 57 -52 0
-59 57 52 0
-60 57 0
59 -60 -52 0
-59 -60 52 0
59 60 -57 52 0
-59 60 -57 -52 0
-61 57 0
59 -61 52 0
-59 -61 -52 0
59 61 -57 -52 0
-59 61 -57 52 0
-62 9 0
-62 56 0
-62 -63 0
62 63 -9 -56 0
63 9 -56 0
-63 9 56 0
-64 9 0
63 -64 -56 0
-63 -64 56 0
63 64 -9 56 0
-63 64 -9 -56 0
-65 9 0
63 -65 56 0
-63 -65 -56 0
63 65 -9 -56 0
-63 65 -9 56 0
-66 9 0
-66 26 0
-66 22 -63 0
-66 -22 63 0
66 -9 22 63 -26 0
66 -9 -22 -63 -26 0
68 9 -22 0
68 -9 22 0
-68 9 22 0
-68 -9 -22 0
67 63 -26 0
67 -63 26 0
-67 63 26 0
-67 -63 -26 0
-69 68 0
-69 26 0
-69 -70 0
69 70 -68 -26 0
70 68 -26 0
-70 68 26 0
-71 68 0
70 -71 -26 0
-70 -71 26 0
70 71 -68 26 0
-70 71 -68 -26 0
-72 68 0
70 -72 26 0
-70 -72 -26 0
70 72 -68 -26 0
-70 72 -68 26 0
-73 9 0
-73 70 0
-73 68 -67 0
-73 -68 67 0
73 -9 68 67 -70 0
73 -9 -68 -67 -70 0
75 9 -68 0
75 -9 68 0
-75 9 68 0
-75 -9 -68 0
74 67 -70 0
74 -67 70 0
-74 67 70 0
-74 -67 -70 0
-76 75 0
-76 70 0
-76 -77 0
76 77 -75 -70 0
77 75 -70 0
-77 75 70 0
-78 75 0
77 -78 -70 0
-77 -78 70 0
77 78 -75 70 0
-77 78 -75 -70 0
-79 75 0
77 -79 70 0
-77 -79 -70 0
77 79 -75 -70 0
-77 79 -75 70 0
-80 9 0
-80 74 0
-80 -81 0
80 81 -9 -74 0
81 9 -74 0
-81 9 74 0
82 -9 0
-82 9 0
-83 9 0
-83 34 0
-83 30 -81 0
-83 -30 81 0
83 -9 30 81 -34 0
83 -9 -30 -81 -34 0
85 9 -30 0
85 -9 30 0
-85 9 30 0
-85 -9 -30 0
84 81 -34 0
84 -81 34 0
-84 81 34 0
-84 -81 -34 0
-86 87 0
-86 85 0
-86 -34 0
86 -87 -85 34 0
87 85 -34 0
-87 85 34 0
88 -85 0
-88 85 0
-89 9 0
-89 87 0
-89 85 -84 0
-89 -85 84 0
89 -9 85 84 -87 0
89 -9 -85 -84 -87 0
91 9 -85 0
91 -9 85 0
-91 9 85 0
-91 -9 -85 0
90 84 -87 0
90 -84 87 0
-90 84 87 0
-90 -84 -87 0
-92 91 0
-92 87 0
-92 -93 0
92 93 -91 -87 0
93 91 -87 0
-93 91 87 0
94 -91 0
-94 91 0
-95 75 0
-95 93 0
-95 91 -77 0
-95 -91 77 0
95 -75 91 77 -93 0
95 -75 -91 -77 -93 0
97 75 -91 0
97 -75 91 0
-97 75 91 0
-97 -75 -91 0
96 77 -93 0
96 -77 93 0
-96 77 93 0
-96 -77 -93 0
-98 97 0
-98 96 0
-98 75 -93 0
-98 -75 93 0
98 -97 75 93 -96 0
98 -97 -75 -93 -96 0
100 97 -75 0
100 -97 75 0
-100 97 75 0
-100 -97 -75 0
99 93 -96 0
99 -93 96 0
-99 93 96 0
-99 -93 -96 0
-101 100 0
-101 99 0
-101 97 -96 0
-101 -97 96 0
101 -100 97 96 -99 0
101 -100 -97 -96 -99 0
103 100 -97 0
103 -100 97 0
-103 100 97 0
-103 -100 -97 0
102 96 -99 0
102 -96 99 0
-102 96 99 0
-102 -96 -99 0
-104 105 0
-104 100 0
-104 -102 0
104 -105 -100 102 0
105 100 -102 0
-105 100 102 0
106 -100 0
-106 100 0
-107 103 0
-107 99 0
-107 -108 0
107 108 -103 -99 0
108 103 -99 0
-108 103 99 0
-109 103 0
108 -109 -99 0
-108 -109 99 0
108 109 -103 99 0
-108 109 -103 -99 0
-110 103 0
108 -110 99 0
-108 -110 -99 0
108 110 -103 -99 0
-108 110 -103 99 0
-111 9 0
-111 90 0
111 -9 -90 0
112 9 -90 0
112 -9 90 0
-112 9 90 0
-112 -9 -90 0
-113 9 0
-113 42 0
-113 38 -112 0
-113 -38 112 0
113 -9 38 112 -42 0
113 -9 -38 -112 -42 0
115 9 -38 0
115 -9 38 0
-115 9 38 0
-115 -9 -38 0
114 112 -42 0
114 -112 42 0
-114 112 42 0
-114 -112 -42 0
-116 115 0
-116 -42 0
116 -115 42 0
117 115 -42 0
117 -115 42 0
-117 115 42 0
-117 -115 -42 0
-118 9 0
-118 117 0
-118 115 -114 0
-118 -115 114 0
118 -9 115 114 -117 0
118 -9 -115 -114 -117 0
120 9 -115 0
120 -9 115 0
-120 9 115 0
-120 -9 -115 0
119 114 -117 0
119 -114 117 0
-119 114 117 0
-119 -114 -117 0
-121 120 0
-121 117 0
121 -120 -117 0
122 120 -117 0
122 -120 117 0
-122 120 117 0
-122 -120 -117 0
-123 57 0
-123 122 0
-123 120 -59 0
-123 -120 59 0
123 -57 120 59 -122 0
123 -57 -120 -59 -122 0
125 57 -120 0
125 -57 120 0
-125 57 120 0
-125 -57 -120 0
124 59 -122 0
124 -59 122 0
-124 59 122 0
-124 -59 -122 0
-126 125 0
-126 124 0
-126 57 -122 0
-126 -57 122 0
126 -125 57 122 -124 0
126 -125 -57 -122 -124 0
128 125 -57 0
128 -125 57 0
-128 125 57 0
-128 -125 -57 0
127 122 -124 0
127 -122 124 0
-127 122 124 0
-127 -122 -124 0
-129 128 0
-129 127 0
-129 125 -124 0
-129 -125 124 0
129 -128 125 124 -127 0
129 -128 -125 -124 -127 0
131 128 -125 0
131 -128 125 0
-131 128 125 0
-131 -128 -125 0
130 124 -127 0
130 -124 127 0
-130 124 127 0
-130 -124 -127 0
-132 128 0
-132 130 0
132 -128 -130 0
133 128 -130 0
133 -128 130 0
-133 128 130 0
-133 -128 -130 0
-134 135 0
-134 133 0
-134 -128 0
134 -135 128 -133 0
135 -128 133 0
-135 128 133 0
-136 133 0
135 -136 -128 0
-135 -136 128 0
135 136 128 -133 0
-135 136 -128 -133 0
-137 133 0
135 -137 128 0
-135 -137 -128 0
135 137 -128 -133 0
-135 137 128 -133 0
-138 135 0
-138 133 0
138 -135 -133 0
139 135 -133 0
139 -135 133 0
-139 135 133 0
-139 -135 -133 0
-140 100 0
-140 139 0
-140 135 -105 0
-140 -135 105 0
140 -100 135 105 -139 0
140 -100 -135 -105 -139 0
142 100 -135 0
142 -100 135 0
-142 100 135 0
-142 -100 -135 0
141 105 -139 0
141 -105 139 0
-141 105 139 0
-141 -105 -139 0
-143 142 0
-143 139 0
-143 -144 0
143 144 -142 -139 0
144 142 -139 0
-144 142 139 0
145 -142 0
-145 142 0
-146 100 0
-146 144 0
-146 142 -141 0
-146 -142 141 0
146 -100 142 141 -144 0
146 -100 -142 -141 -144 0
148 100 -142 0
148 -100 142 0
-148 100 142 0
-148 -100 -142 0
147 141 -144 0
147 -141 144 0
-147 141 144 0
-147 -141 -144 0
-149 150 0
-149 148 0
-149 -144 0
149 -150 -148 144 0
150 148 -144 0
-150 148 144 0
151 -148 0
-151 148 0
-152 100 0
-152 147 0
152 -100 -147 0
153 100 -147 0
153 -100 147 0
-153 100 147 0
-153 -100 -147 0
-154 155 0
-154 153 0
-154 -100 0
154 -155 100 -153 0
155 -100 153 0
-155 100 153 0
-156 153 0
155 -156 -100 0
-155 -156 100 0
155 156 100 -153 0
-155 156 -100 -153 0
-157 153 0
155 -157 100 0
-155 -157 -100 0
155 157 -100 -153 0
-155 157 100 -153 0
-158 155 0
-158 153 0
158 -155 -153 0
159 155 -153 0
159 -155 153 0
-159 155 153 0
-159 -155 -153 0
-160 103 0
-160 150 0
-160 148 -108 0
-160 -148 108 0
160 -103 148 108 -150 0
160 -103 -148 -108 -150 0
162 103 -148 0
162 -103 148 0
-162 103 148 0
-162 -103 -148 0
161 108 -150 0
161 -108 150 0
-161 108 150 0
-161 -108 -150 0
-163 162 0
-163 150 0
-163 -164 0
163 164 -162 -150 0
164 162 -150 0
-164 162 150 0
-165 162 0
164 -165 -150 0
-164 -165 150 0
164 165 -162 150 0
-164 165 -162 -150 0
-166 162 0
164 -166 150 0
-164 -166 -150 0
164 166 -162 -150 0
-164 166 -162 150 0
-167 103 0
-167 164 0
-167 162 -161 0
-167 -162 161 0
167 -103 162 161 -164 0
167 -103 -162 -161 -164 0
169 103 -162 0
169 -103 162 0
-169 103 162 0
-169 -103 -162 0
168 161 -164 0
168 -161 164 0
-168 161 164 0
-168 -161 -164 0
-170 169 0
-170 164 0
-170 -171 0
170 171 -169 -164 0
171 169 -164 0
-171 169 164 0
-172 169 0
171 -172 -164 0
-171 -172 164 0
171 172 -169 164 0
-171 172 -169 -164 0
-173 169 0
171 -173 164 0
-171 -173 -164 0
171 173 -169 -164 0
-171 173 -169 164 0
-174 175 0
-174 103 0
-174 -168 0
174 -175 -103 168 0
175 103 -168 0
-175 103 168 0
176 -103 0
-176 103 0
-177 103 0
-177 159 0
-177 155 -175 0
-177 -155 175 0
177 -103 155 175 -159 0
177 -103 -155 -175 -159 0
179 103 -155 0
179 -103 155 0
-179 103 155 0
-179 -103 -155 0
178 175 -159 0
178 -175 159 0
-178 175 159 0
-178 -175 -159 0
-180 179 0
-180 159 0
-180 -181 0
180 181 -179 -159 0
181 179 -159 0
-181 179 159 0
182 -179 0
-182 179 0
-183 103 0
-183 181 0
-183 179 -178 0
-183 -179 178 0
183 -103 179 178 -181 0
183 -103 -179 -178 -181 0
185 103 -179 0
185 -103 179 0
-185 103 179 0
-185 -103 -179 0
184 178 -181 0
184 -178 181 0
-184 178 181 0
-184 -178 -181 0
-186 187 0
-186 185 0
-186 -181 0
186 -187 -185 181 0
187 185 -181 0
-187 185 181 0
188 -185 0
-188 185 0
-189 103 0
-189 184 0
189 -103 -184 0
190 103 -184 0
190 -103 184 0
-190 103 184 0
-190 -103 -184 0
-191 192 0
-191 190 0
-191 -103 0
191 -192 103 -190 0
192 -103 190 0
-192 103 190 0
-193 190 0
192 -193 -103 0
-192 -193 103 0
192 193 103 -190 0
-192 193 -103 -190 0
-194 190 0
192 -194 103 0
-192 -194 -103 0
192 194 -103 -190 0
-192 194 103 -190 0
-195 192 0
-195 190 0
195 -192 -190 0
196 192 -190 0
196 -192 190 0
-196 192 190 0
-196 -192 -190 0
-197 131 0
-197 127 0
-197 -198 0
197 198 -131 -127 0
198 131 -127 0
-198 131 127 0
-199 131 0
198 -199 -127 0
-198 -199 127 0
198 199 -131 127 0
-198 199 -131 -127 0
-200 131 0
198 -200 127 0
-198 -200 -127 0
198 200 -131 -127 0
-198 200 -131 127 0
-201 131 0
-201 171 0
-201 169 -198 0
-201 -169 198 0
201 -131 169 198 -171 0
201 -131 -169 -198 -171 0
203 131 -169 0
203 -131 169 0
-203 131 169 0
-203 -131 -169 0
202 198 -171 0
202 -198 171 0
-202 198 171 0
-202 -198 -171 0
-204 203 0
-204 171 0
-204 -205 0
204 205 -203 -171 0
205 203 -171 0
-205 203 171 0
-206 203 0
205 -206 -171 0
-205 -206 171 0
205 206 -203 171 0
-205 206 -203 -171 0
-207 203 0
205 -207 171 0
-205 -207 -171 0
205 207 -203 -171 0
-205 207 -203 171 0
-208 131 0
-208 205 0
-208 203 -202 0
-208 -203 202 0
208 -131 203 202 -205 0
208 -131 -203 -202 -205 0
210 131 -203 0
210 -131 203 0
-210 131 203 0
-210 -131 -203 0
209 202 -205 0
209 -202 205 0
-209 202 205 0
-209 -202 -205 0
-211 210 0
-211 205 0
-211 -212 0
211 212 -210 -205 0
212 210 -205 0
-212 210 205 0
-213 210 0
212 -213 -205 0
-212 -213 205 0
212 213 -210 205 0
-212 213 -210 -205 0
-214 210 0
212 -214 205 0
-212 -214 -205 0
212 214 -210 -205 0
-212 214 -210 205 0
-215 131 0
-215 209 0
-215 -216 0
215 216 -131 -209 0
216 131 -209 0
-216 131 209 0
-217 131 0
216 -217 -209 0
-216 -217 209 0
216 217 -131 209 0
-216 217 -131 -209 0
-218 131 0
216 -218 209 0
-216 -218 -209 0
216 218 -131 -209 0
-216 218 -131 209 0
-219 131 0
-219 187 0
-219 185 -216 0
-219 -185 216 0
219 -131 185 216 -187 0
219 -131 -185 -216 -187 0
221 131 -185 0
221 -131 185 0
-221 131 185 0
-221 -131 -185 0
220 216 -187 0
220 -216 187 0
-220 216 187 0
-220 -216 -187 0
-222 221 0
-222 187 0
-222 -223 0
222 223 -221 -187 0
223 221 -187 0
-223 221 187 0
-224 221 0
223 -224 -187 0
-223 -224 187 0
223 224 -221 187 0
-223 224 -221 -187 0
-225 221 0
223 -225 187 0
-223 -225 -187 0
223 225 -221 -187 0
-223 225 -221 187 0
-226 131 0
-226 223 0
-226 221 -220 0
-226 -221 220 0
226 -131 221 220 -223 0
226 -131 -221 -220 -223 0
228 131 -221 0
228 -131 221 0
-228 131 221 0
-228 -131 -221 0
227 220 -223 0
227 -220 223 0
-227 220 223 0
-227 -220 -223 0
-229 228 0
-229 223 0
-229 -230 0
229 230 -228 -223 0
230 228 -223 0
-230 228 223 0
-231 228 0
230 -231 -223 0
-230 -231 223 0
230 231 -228 223 0
-230 231 -228 -223 0
-232 228 0
230 -232 223 0
-230 -232 -223 0
230 232 -228 -223 0
-230 232 -228 223 0
-233 234 0
-233 131 0
-233 -227 0
233 -234 -131 227 0
234 131 -227 0
-234 131 227 0
235 -131 0
-235 131 0
-236 131 0
-236 196 0
-236 192 -234 0
-236 -192 234 0
236 -131 192 234 -196 0
236 -131 -192 -234 -196 0
238 131 -192 0
238 -131 192 0
-238 131 192 0
-238 -131 -192 0
237 234 -196 0
237 -234 196 0
-237 234 196 0
-237 -234 -196 0
-239 238 0
-239 196 0
-239 -240 0
239 240 -238 -196 0
240 238 -196 0
-240 238 196 0
241 -238 0
-241 238 0
-242 131 0
-242 240 0
-242 238 -237 0
-242 -238 237 0
242 -131 238 237 -240 0
242 -131 -238 -237 -240 0
244 131 -238 0
244 -131 238 0
-244 131 238 0
-244 -131 -238 0
243 237 -240 0
243 -237 240 0
-243 237 240 0
-243 -237 -240 0
-245 246 0
-245 244 0
-245 -240 0
245 -246 -244 240 0
246 244 -240 0
-246 244 240 0
247 -244 0
-247 244 0
-248 131 0
-248 243 0
248 -131 -243 0
249 131 -243 0
249 -131 243 0
-249 131 243 0
-249 -131 -243 0
-250 251 0
-250 249 0
-250 -131 0
250 -251 131 -249 0
251 -131 249 0
-251 131 249 0
-252 249 0
251 -252 -131 0
-251 -252 131 0
251 252 131 -249 0
-251 252 -131 -249 0
-253 249 0
251 -253 131 0
-251 -253 -131 0
251 253 -131 -249 0
-251 253 131 -249 0
-254 251 0
-254 249 0
254 -251 -249 0
255 251 -249 0
255 -251 249 0
-255 251 249 0
-255 -251 -249 0
-210 0
-228 0
-230 0
-244 0
-246 0
-251 0
-255 0
-9 0
-119 0
